
%FILE DATA:	Soccer Computational Problem for MiniZinc Models	%
%AUTHOR:	Jack Wall	%
%CONTACT:  	116397063@umail.ucc.ie			%
%LAST UPDATE:	03/03/2020, 12:29:48						%
%DESCRIPTION: 	60 games played with 30 games left				%


n=10; %number of teams

%Games to play
games=[|2,10|5,3|1,4|7,8|10,4|9,10|9,2|9,6|2,7|2,8|4,5|9,1|10,3|8,3|1,2|8,7|4,2|2,1|9,4|10,6|2,3|9,7|3,6|6,3|4,8|5,8|9,8|5,9|3,1|1,7|];

%Initial points
iPoints=[19,10,14,19,19,14,25,13,17,14];

%POSITION CONSTRAINTS
% [|teamID, operator, position|...]
% operators index:
%  1 for =  operator
%  2 for >  operator
%  3 for >= operator
%  4 for <  operator
%  5 for <= operator
positionConstraints=[|7,1,1|3,3,2|4,2,2|1,3,4|9,5,5|];